(set-logic QF_S)
(declare-fun var0 () String)
(declare-fun var1 () Int)
(declare-fun var2 () Int)
(declare-fun var3 () String)
(declare-fun var4 () String)
(declare-fun var5 () String)
(declare-fun var6 () Int)
(declare-fun var7 () Int)
(assert (> (str.len (str.substr var0 var1 var2)) (str.indexof (str.replace var3 var4 var5) (str.replace "&k(p+2#u" var3 var5) (str.to.int """ifqTp"))))
(assert (str.contains var4 var0))
(assert (not (>= var6 var7)))
(assert (str.prefixof (str.replace var0 var4 var3) (str.substr var3 var2 var1)))
(check-sat)